0 117 
1 120 
2 121 
3 120 
4 120 
5 120 
6 124 
7 123 
8 122 
9 120 
10 118 
11 117 
12 116 
13 117 
14 116 
15 115 
16 113 
17 112 
18 111 
19 110 
20 108 
21 108 
22 106 
23 105 
24 103 
25 102 
26 100 
27 101 
28 103 
29 101 
30 103 
31 103 
32 101 
33 101 
34 99 
35 98 
36 96 
37 93 
38 91 
39 89 
40 87 
41 84 
42 82 
43 84 
44 84 
45 84 
46 84 
47 82 
48 80 
49 79 
50 79 
51 81 
52 81 
53 81 
54 78 
55 76 
56 75 
57 72 
58 71 
59 68 
60 69 
61 67 
62 68 
63 68 
64 67 
65 68 
66 66 
67 65 
68 66 
69 64 
70 61 
71 59 
72 57 
73 57 
74 56 
75 56 
76 53 
77 51 
78 50 
79 52 
80 50 
81 48 
82 46 
83 45 
84 41 
85 39 
86 38 
87 41 
88 44 
89 42 
90 39 
91 39 
92 40 
93 38 
94 36 
95 38 
96 37 
97 35 
98 37 
99 34 
100 33 
101 33 
102 32 
103 31 
104 29 
105 28 
106 25 
107 23 
108 22 
109 20 
110 19 
111 16 
112 15 
113 12 
114 13 
115 10 
116 11 
117 10 
118 11 
119 12 
120 11 
121 10 
122 9 
123 9 
124 8 
125 6 
126 6 
127 5 
128 4 
129 5 
130 4 
131 3 
132 3 
133 1 
134 0 
135 0 

